ssat_solver_solve2
#level: 3
Abc_NtkNodeNum(s->pNtk): 1680  , BDD limit: 10240
Build BDD success
level 2: 272 element
Exist
level 1: 64 element
Random
level 0: 64 element
Exist
c ssat solving in ABC
#var: 400
s SATISFIABLE
  > Upper bound = 1.000000e+00
  > Lower bound = 1.000000e+00
FINISHED CPU 3.00 MEM 84900 MAXMEM 84900 STALE 0 MAXMEM_RSS 43880
<time name="ALL">3080</time>
real 3.16
user 3.62
sys 1.31
